26 8 7 76 5 30 40 46 16 25 41 35 57 74 12 58 22 19 4 59 29 56 24 63 36 52 32 66 45 15 31 23 61 67 38 10 6 2 68 50 42 75 13 0 47 43 69 49 54 70 62 48 28 18 65 64 51 34 44 3 71 72 60 14 53 73 21 55 17 27 20 9 39 11 37 33 1 